\ SCIP STATISTICS
\   Problem name     : /mnt/d/dev/Cutting-Plane-Generators/files/task.lp
\   Variables        : 2 (0 binary, 2 integer, 0 implicit integer, 0 continuous)
\   Constraints      : 2
Minimize
 Obj: +11 x -13.1 y
Subject to
 c0: -1.857143 x + -1.714286 y >= -4.85714
 c1: -1.714286 x + -1.857143 y >= -4.85714
 a1: -11 x +13 y <= -10
 a2: +1 x +10 y <= +90
Bounds
Generals
 x y
End
